DIMACS_lns/graph-1000-583.col
p edge 1000 1824
e 1 418
e 1 75
e 1 794
e 1 395
e 1 198
e 2 691
e 2 764
e 2 813
e 2 713
e 3 914
e 3 432
e 3 573
e 3 72
e 4 951
e 4 731
e 4 552
e 4 291
e 5 733
e 5 304
e 5 680
e 5 514
e 5 605
e 5 327
e 8 414
e 8 309
e 8 677
e 8 479
e 8 365
e 8 646
e 9 521
e 9 375
e 9 683
e 10 461
e 10 78
e 10 632
e 12 844
e 12 594
e 12 68
e 12 559
e 12 805
e 13 273
e 13 159
e 13 719
e 14 813
e 14 882
e 14 251
e 16 671
e 16 380
e 16 933
e 17 454
e 17 40
e 17 787
e 18 723
e 18 410
e 18 473
e 19 986
e 19 496
e 19 798
e 19 814
e 19 39
e 20 838
e 20 981
e 20 918
e 20 594
e 20 139
e 20 829
e 20 255
e 21 458
e 21 957
e 21 208
e 22 220
e 22 321
e 22 935
e 22 124
e 23 110
e 23 874
e 23 785
e 25 637
e 25 862
e 25 145
e 25 380
e 26 682
e 26 443
e 26 383
e 26 575
e 26 772
e 26 799
e 26 992
e 27 743
e 27 377
e 27 845
e 28 651
e 28 476
e 28 442
e 28 854
e 28 496
e 29 405
e 29 966
e 29 906
e 29 350
e 29 480
e 30 800
e 30 268
e 30 390
e 31 356
e 31 709
e 31 765
e 31 977
e 32 923
e 32 544
e 32 504
e 33 972
e 33 142
e 33 404
e 33 957
e 33 334
e 34 966
e 34 924
e 34 365
e 34 724
e 35 485
e 35 863
e 35 303
e 35 145
e 37 564
e 37 471
e 37 106
e 37 450
e 38 524
e 38 914
e 38 431
e 38 884
e 38 345
e 39 223
e 39 365
e 39 191
e 39 608
e 39 127
e 40 980
e 40 496
e 40 778
e 40 978
e 40 936
e 40 81
e 40 51
e 42 977
e 42 857
e 42 853
e 42 794
e 42 770
e 42 612
e 44 721
e 44 456
e 44 103
e 44 288
e 46 998
e 46 361
e 46 977
e 46 768
e 46 646
e 46 553
e 46 575
e 47 193
e 47 504
e 47 700
e 49 246
e 49 110
e 49 655
e 49 168
e 49 71
e 49 510
e 49 786
e 49 741
e 50 333
e 50 609
e 50 451
e 50 449
e 50 372
e 51 190
e 51 169
e 51 965
e 51 171
e 52 456
e 52 105
e 52 972
e 53 747
e 53 419
e 53 66
e 53 154
e 53 373
e 55 350
e 55 750
e 55 959
e 55 966
e 56 295
e 56 535
e 56 991
e 57 993
e 57 336
e 57 681
e 57 781
e 58 239
e 58 96
e 58 123
e 58 590
e 60 524
e 60 499
e 60 606
e 60 431
e 60 164
e 61 657
e 61 83
e 61 626
e 61 495
e 61 850
e 61 333
e 62 762
e 62 481
e 62 71
e 63 393
e 63 232
e 63 114
e 64 153
e 64 83
e 64 623
e 64 564
e 64 666
e 66 514
e 66 241
e 66 171
e 66 715
e 66 303
e 67 776
e 67 780
e 67 335
e 67 855
e 67 370
e 68 259
e 68 435
e 68 681
e 70 707
e 70 745
e 70 105
e 70 459
e 70 246
e 70 115
e 70 405
e 71 617
e 71 216
e 71 180
e 71 646
e 72 831
e 72 167
e 73 562
e 73 403
e 73 723
e 73 227
e 74 401
e 74 287
e 74 200
e 74 681
e 75 984
e 75 268
e 75 223
e 75 688
e 77 211
e 77 682
e 77 664
e 77 415
e 77 938
e 77 345
e 78 110
e 78 117
e 78 919
e 78 688
e 79 777
e 79 671
e 79 856
e 79 574
e 79 274
e 80 562
e 80 397
e 80 159
e 80 417
e 81 309
e 81 411
e 81 935
e 81 425
e 81 336
e 81 936
e 81 364
e 81 378
e 81 955
e 81 345
e 83 348
e 83 939
e 83 104
e 83 991
e 83 415
e 83 956
e 85 99
e 85 617
e 85 332
e 87 485
e 87 488
e 87 103
e 87 435
e 91 156
e 91 291
e 91 938
e 91 738
e 91 528
e 92 218
e 92 459
e 92 998
e 92 460
e 96 836
e 96 562
e 96 125
e 97 119
e 97 412
e 97 373
e 97 824
e 97 731
e 97 436
e 99 110
e 99 105
e 99 778
e 99 352
e 99 786
e 99 913
e 100 816
e 100 943
e 100 937
e 100 827
e 103 158
e 104 813
e 104 506
e 104 542
e 105 981
e 105 857
e 105 884
e 106 342
e 106 945
e 106 298
e 108 413
e 108 380
e 108 540
e 109 310
e 109 231
e 109 336
e 109 682
e 109 683
e 112 412
e 112 380
e 112 456
e 114 300
e 114 412
e 114 688
e 114 803
e 115 223
e 115 389
e 115 540
e 116 753
e 116 541
e 116 651
e 116 432
e 117 811
e 117 607
e 117 934
e 117 478
e 117 200
e 119 559
e 119 285
e 119 436
e 119 798
e 121 861
e 121 317
e 121 563
e 121 361
e 121 544
e 123 937
e 123 636
e 124 780
e 124 648
e 124 287
e 125 278
e 125 392
e 127 732
e 127 924
e 127 939
e 127 219
e 128 389
e 128 701
e 128 305
e 128 573
e 128 905
e 130 178
e 130 575
e 130 970
e 130 463
e 130 710
e 131 562
e 131 418
e 131 905
e 131 938
e 131 153
e 131 488
e 132 351
e 132 509
e 132 359
e 132 578
e 132 700
e 133 342
e 133 610
e 133 894
e 133 826
e 133 924
e 134 561
e 134 657
e 134 462
e 134 495
e 134 329
e 135 429
e 135 562
e 135 930
e 135 165
e 135 692
e 136 719
e 136 416
e 136 624
e 136 644
e 136 429
e 136 579
e 137 667
e 137 897
e 137 293
e 137 831
e 138 256
e 138 452
e 138 658
e 138 605
e 139 159
e 139 949
e 139 604
e 140 442
e 140 880
e 140 544
e 140 300
e 142 171
e 142 607
e 142 443
e 142 453
e 143 604
e 143 553
e 143 622
e 143 866
e 144 646
e 144 972
e 144 344
e 144 436
e 145 630
e 145 825
e 145 367
e 145 415
e 145 832
e 146 411
e 146 242
e 146 929
e 146 692
e 146 493
e 147 998
e 147 334
e 147 392
e 147 702
e 148 254
e 148 374
e 148 330
e 148 596
e 148 988
e 148 807
e 149 373
e 149 361
e 149 583
e 152 504
e 152 928
e 152 749
e 152 637
e 153 489
e 153 367
e 154 361
e 154 634
e 155 162
e 155 975
e 155 569
e 155 496
e 155 418
e 156 167
e 156 455
e 156 169
e 156 943
e 157 933
e 157 993
e 157 733
e 157 663
e 158 172
e 158 552
e 158 567
e 158 307
e 158 190
e 159 495
e 159 291
e 159 716
e 160 501
e 160 731
e 160 930
e 162 666
e 162 969
e 162 903
e 163 776
e 163 398
e 163 979
e 163 175
e 164 329
e 164 632
e 164 694
e 164 169
e 165 370
e 165 949
e 167 988
e 167 943
e 167 407
e 167 263
e 167 587
e 168 797
e 168 787
e 168 349
e 168 211
e 168 670
e 168 921
e 169 676
e 169 313
e 172 263
e 172 855
e 172 511
e 172 831
e 175 746
e 175 929
e 175 705
e 175 461
e 175 302
e 175 768
e 177 792
e 177 418
e 177 209
e 178 251
e 178 841
e 178 933
e 178 689
e 178 918
e 178 201
e 179 840
e 179 942
e 179 930
e 180 561
e 180 455
e 182 435
e 182 546
e 182 360
e 182 231
e 186 522
e 186 205
e 186 547
e 186 825
e 186 545
e 187 989
e 187 540
e 187 472
e 187 767
e 187 597
e 187 748
e 189 988
e 189 777
e 189 924
e 190 999
e 190 709
e 190 445
e 190 548
e 191 649
e 191 609
e 191 517
e 191 435
e 191 469
e 193 574
e 193 548
e 194 490
e 194 590
e 194 641
e 195 554
e 195 733
e 195 748
e 195 734
e 195 987
e 198 683
e 198 458
e 198 860
e 198 370
e 198 605
e 198 938
e 198 924
e 199 658
e 199 450
e 199 422
e 200 511
e 200 291
e 200 577
e 200 231
e 200 919
e 201 355
e 201 887
e 202 579
e 202 360
e 202 362
e 202 465
e 202 806
e 203 530
e 203 489
e 203 660
e 204 223
e 204 874
e 204 521
e 204 508
e 205 890
e 205 596
e 205 905
e 205 899
e 205 828
e 205 280
e 205 621
e 208 306
e 208 867
e 208 828
e 209 437
e 209 499
e 209 473
e 210 433
e 210 568
e 210 484
e 210 801
e 211 440
e 211 743
e 215 533
e 215 964
e 215 519
e 216 595
e 216 671
e 216 909
e 218 485
e 218 450
e 218 349
e 218 352
e 218 798
e 219 240
e 219 887
e 220 239
e 220 891
e 220 966
e 220 429
e 220 618
e 221 335
e 221 764
e 221 636
e 222 595
e 222 278
e 222 345
e 222 452
e 222 828
e 223 817
e 223 457
e 223 844
e 225 999
e 225 634
e 225 328
e 226 865
e 226 417
e 226 334
e 227 672
e 227 921
e 227 507
e 227 692
e 227 422
e 227 463
e 229 305
e 229 449
e 229 282
e 229 501
e 229 447
e 230 959
e 230 275
e 230 471
e 231 789
e 231 826
e 231 941
e 231 919
e 231 674
e 232 250
e 232 898
e 232 268
e 232 840
e 237 377
e 237 481
e 237 470
e 239 701
e 239 476
e 240 859
e 240 569
e 240 420
e 240 324
e 241 676
e 241 829
e 241 396
e 241 766
e 241 773
e 242 368
e 242 890
e 242 803
e 242 404
e 242 537
e 242 465
e 244 923
e 244 982
e 244 862
e 244 815
e 245 816
e 245 925
e 245 247
e 246 270
e 247 525
e 247 346
e 247 821
e 247 415
e 247 760
e 249 709
e 249 390
e 249 273
e 249 301
e 249 354
e 250 410
e 250 857
e 250 346
e 250 326
e 250 259
e 250 573
e 251 680
e 252 814
e 252 623
e 252 800
e 254 395
e 254 784
e 254 485
e 255 397
e 255 707
e 255 745
e 255 798
e 256 735
e 256 894
e 257 572
e 257 892
e 257 590
e 257 551
e 257 660
e 258 986
e 258 803
e 258 307
e 258 268
e 258 723
e 259 967
e 259 476
e 259 298
e 259 957
e 260 441
e 260 801
e 260 354
e 260 617
e 261 383
e 261 521
e 261 964
e 261 548
e 261 575
e 261 994
e 262 559
e 262 454
e 262 394
e 263 861
e 263 743
e 263 429
e 263 667
e 263 523
e 264 292
e 264 470
e 264 329
e 264 612
e 267 680
e 267 770
e 267 553
e 267 786
e 270 692
e 270 489
e 271 525
e 271 662
e 271 701
e 272 993
e 272 596
e 272 885
e 273 715
e 273 838
e 273 515
e 274 660
e 274 859
e 274 784
e 275 292
e 275 584
e 275 578
e 276 625
e 276 654
e 276 549
e 278 889
e 278 871
e 279 473
e 279 460
e 279 355
e 279 533
e 280 356
e 280 710
e 280 885
e 280 473
e 280 853
e 280 345
e 282 556
e 282 969
e 282 584
e 282 820
e 282 288
e 284 705
e 284 322
e 284 734
e 285 642
e 285 501
e 285 938
e 285 913
e 285 929
e 286 713
e 286 582
e 286 435
e 286 506
e 287 924
e 287 909
e 287 700
e 287 552
e 287 691
e 287 838
e 288 918
e 288 530
e 288 966
e 288 858
e 288 507
e 290 955
e 290 428
e 290 520
e 291 349
e 291 764
e 291 643
e 291 818
e 292 934
e 292 834
e 292 942
e 292 610
e 292 989
e 292 924
e 292 898
e 293 331
e 293 368
e 293 325
e 293 585
e 293 355
e 293 809
e 293 424
e 293 649
e 294 856
e 294 872
e 294 791
e 295 757
e 295 324
e 295 971
e 298 670
e 298 724
e 298 905
e 298 893
e 300 653
e 300 537
e 300 311
e 300 559
e 301 480
e 301 689
e 301 478
e 301 820
e 301 487
e 302 787
e 302 841
e 302 648
e 303 905
e 303 971
e 303 310
e 304 624
e 304 791
e 305 566
e 305 445
e 306 588
e 306 397
e 306 746
e 307 418
e 307 556
e 309 715
e 309 705
e 309 662
e 309 610
e 310 766
e 310 579
e 310 667
e 311 378
e 311 666
e 311 745
e 311 449
e 313 969
e 313 317
e 314 904
e 314 371
e 314 772
e 314 925
e 314 370
e 314 319
e 316 632
e 316 859
e 316 480
e 317 638
e 318 777
e 318 677
e 318 460
e 319 746
e 319 622
e 320 790
e 320 930
e 320 596
e 321 768
e 321 785
e 321 553
e 322 510
e 322 587
e 322 840
e 323 505
e 323 510
e 323 572
e 323 896
e 324 478
e 324 489
e 325 956
e 325 988
e 325 583
e 326 415
e 326 389
e 326 441
e 326 885
e 326 378
e 326 540
e 326 821
e 326 933
e 326 489
e 326 625
e 327 345
e 327 964
e 327 965
e 328 545
e 328 585
e 329 821
e 329 753
e 329 866
e 330 373
e 330 510
e 330 472
e 331 562
e 331 955
e 331 860
e 331 793
e 331 966
e 332 369
e 332 337
e 332 537
e 333 588
e 333 729
e 333 871
e 333 975
e 333 731
e 333 602
e 334 925
e 335 380
e 335 700
e 336 981
e 337 885
e 337 636
e 337 934
e 337 630
e 337 415
e 339 484
e 339 553
e 339 786
e 339 531
e 342 884
e 342 745
e 342 989
e 342 521
e 343 770
e 343 588
e 343 695
e 343 806
e 344 781
e 344 581
e 344 575
e 345 583
e 345 554
e 345 939
e 346 715
e 346 903
e 346 741
e 347 858
e 347 558
e 347 617
e 347 504
e 348 885
e 348 702
e 349 356
e 349 623
e 350 476
e 350 575
e 350 414
e 350 865
e 350 762
e 350 585
e 350 374
e 351 753
e 351 727
e 351 781
e 351 448
e 351 748
e 351 693
e 352 716
e 354 413
e 354 516
e 355 495
e 355 606
e 356 680
e 357 923
e 357 487
e 357 447
e 357 865
e 357 768
e 359 456
e 359 571
e 360 668
e 360 769
e 360 941
e 361 487
e 361 414
e 362 522
e 362 568
e 362 643
e 364 984
e 364 377
e 364 745
e 365 929
e 367 914
e 367 771
e 367 801
e 368 487
e 368 475
e 369 547
e 369 692
e 369 892
e 369 659
e 370 392
e 370 794
e 370 703
e 371 630
e 371 667
e 371 459
e 371 548
e 371 737
e 372 976
e 372 480
e 372 975
e 372 568
e 372 880
e 373 976
e 373 395
e 373 597
e 374 451
e 375 647
e 375 699
e 375 411
e 377 617
e 377 922
e 377 742
e 377 382
e 377 866
e 378 456
e 378 466
e 378 673
e 380 398
e 380 911
e 380 928
e 380 850
e 380 607
e 382 898
e 382 509
e 382 429
e 382 556
e 383 481
e 384 698
e 384 724
e 384 574
e 384 452
e 384 415
e 384 709
e 389 741
e 389 511
e 389 777
e 389 981
e 389 496
e 389 395
e 389 595
e 390 718
e 390 644
e 390 826
e 390 886
e 391 763
e 391 544
e 391 911
e 392 988
e 392 655
e 392 553
e 392 524
e 393 973
e 393 658
e 394 538
e 394 726
e 394 490
e 394 601
e 394 815
e 395 618
e 396 496
e 396 810
e 396 672
e 397 884
e 397 642
e 398 738
e 398 937
e 401 667
e 401 728
e 403 922
e 403 949
e 404 789
e 404 693
e 405 475
e 405 734
e 407 814
e 407 869
e 409 456
e 409 617
e 409 850
e 409 553
e 410 517
e 411 690
e 411 893
e 411 618
e 411 985
e 412 784
e 412 794
e 412 524
e 412 951
e 412 803
e 412 637
e 412 869
e 413 780
e 413 975
e 414 456
e 414 984
e 414 465
e 415 604
e 416 776
e 416 516
e 416 924
e 416 674
e 416 949
e 416 955
e 417 563
e 417 878
e 418 484
e 419 707
e 419 606
e 419 649
e 419 863
e 420 603
e 420 768
e 420 435
e 420 950
e 421 836
e 421 721
e 421 583
e 421 802
e 422 431
e 423 977
e 423 563
e 423 952
e 423 463
e 424 568
e 424 437
e 425 460
e 425 741
e 428 898
e 428 553
e 429 790
e 429 467
e 429 596
e 431 857
e 432 540
e 433 828
e 433 984
e 433 566
e 433 556
e 435 746
e 435 884
e 435 791
e 436 882
e 436 997
e 437 889
e 437 629
e 437 688
e 438 763
e 438 462
e 438 922
e 438 719
e 439 884
e 439 950
e 439 935
e 440 884
e 440 443
e 441 818
e 442 542
e 442 872
e 443 803
e 444 836
e 444 581
e 444 716
e 444 753
e 445 891
e 445 451
e 445 728
e 447 745
e 447 734
e 448 794
e 448 917
e 450 672
e 450 537
e 451 914
e 451 986
e 452 970
e 452 568
e 452 703
e 453 700
e 453 896
e 453 742
e 453 562
e 454 972
e 454 674
e 455 691
e 455 465
e 456 469
e 456 939
e 456 767
e 457 894
e 457 905
e 457 694
e 458 993
e 458 966
e 458 858
e 458 499
e 458 550
e 458 998
e 459 760
e 460 813
e 460 695
e 461 870
e 462 664
e 462 779
e 463 534
e 463 519
e 464 699
e 464 799
e 464 519
e 465 800
e 465 667
e 465 887
e 466 968
e 466 518
e 466 773
e 466 742
e 467 867
e 467 637
e 467 663
e 468 623
e 468 763
e 468 790
e 469 713
e 469 725
e 470 612
e 470 683
e 471 825
e 472 646
e 472 534
e 472 729
e 473 861
e 475 523
e 475 970
e 476 760
e 478 998
e 479 487
e 479 555
e 479 532
e 479 604
e 479 772
e 479 941
e 481 522
e 481 516
e 481 634
e 481 737
e 483 676
e 483 968
e 483 867
e 483 825
e 483 728
e 484 488
e 484 516
e 484 802
e 484 985
e 485 870
e 487 799
e 487 871
e 487 603
e 488 710
e 488 999
e 489 861
e 489 747
e 490 940
e 490 536
e 490 856
e 493 508
e 493 780
e 496 772
e 496 716
e 496 563
e 496 891
e 497 982
e 497 525
e 497 725
e 497 993
e 498 536
e 498 815
e 498 843
e 499 554
e 499 689
e 504 884
e 505 654
e 505 641
e 506 726
e 507 558
e 507 553
e 507 763
e 508 797
e 508 860
e 509 909
e 509 601
e 509 825
e 510 722
e 510 937
e 511 603
e 511 718
e 514 673
e 514 761
e 515 655
e 515 768
e 515 562
e 516 604
e 516 949
e 516 569
e 516 542
e 517 538
e 517 699
e 517 562
e 518 973
e 518 715
e 518 874
e 519 693
e 519 705
e 520 540
e 520 595
e 521 964
e 521 970
e 522 585
e 523 924
e 523 571
e 523 819
e 524 841
e 524 829
e 524 810
e 524 670
e 525 702
e 528 930
e 528 554
e 530 632
e 530 626
e 530 831
e 531 861
e 531 698
e 532 900
e 532 930
e 533 978
e 533 719
e 534 626
e 534 951
e 534 769
e 535 824
e 535 555
e 536 731
e 537 845
e 537 558
e 538 999
e 538 867
e 540 797
e 540 713
e 541 723
e 541 796
e 541 988
e 542 836
e 542 821
e 544 665
e 545 872
e 546 793
e 546 786
e 547 691
e 547 663
e 547 743
e 547 750
e 549 585
e 549 787
e 549 732
e 549 663
e 550 985
e 550 647
e 550 724
e 551 797
e 551 756
e 551 575
e 551 928
e 551 895
e 551 872
e 551 987
e 552 790
e 552 989
e 553 697
e 553 803
e 554 726
e 554 865
e 554 748
e 554 883
e 555 563
e 555 934
e 555 930
e 556 853
e 556 887
e 556 783
e 558 574
e 558 921
e 558 743
e 559 619
e 561 911
e 561 979
e 561 763
e 562 677
e 563 966
e 564 792
e 566 885
e 566 871
e 566 745
e 567 596
e 567 818
e 568 736
e 569 634
e 570 845
e 570 709
e 570 942
e 570 940
e 571 800
e 571 761
e 571 674
e 571 952
e 572 923
e 572 699
e 572 855
e 574 976
e 575 585
e 575 780
e 576 921
e 576 803
e 576 853
e 576 741
e 577 792
e 577 892
e 578 927
e 578 683
e 578 666
e 578 880
e 579 700
e 581 985
e 581 952
e 582 793
e 582 993
e 583 659
e 583 594
e 584 892
e 584 987
e 584 674
e 587 896
e 588 691
e 588 603
e 588 826
e 590 629
e 594 970
e 594 713
e 595 641
e 596 742
e 597 829
e 597 667
e 597 785
e 597 982
e 597 737
e 601 761
e 601 968
e 602 843
e 602 621
e 605 918
e 606 803
e 606 866
e 606 917
e 607 779
e 607 800
e 608 736
e 608 975
e 608 753
e 608 721
e 609 794
e 612 938
e 617 988
e 617 972
e 617 806
e 617 792
e 618 653
e 618 728
e 619 855
e 619 796
e 619 909
e 621 840
e 622 743
e 623 867
e 624 729
e 624 895
e 625 753
e 625 723
e 629 694
e 632 701
e 632 956
e 634 648
e 634 718
e 634 870
e 634 793
e 637 663
e 638 950
e 638 980
e 641 749
e 642 965
e 642 933
e 642 893
e 642 799
e 643 894
e 643 937
e 643 736
e 644 769
e 646 710
e 647 883
e 647 763
e 647 941
e 648 870
e 649 664
e 649 771
e 651 882
e 653 658
e 653 834
e 654 899
e 657 801
e 659 874
e 659 977
e 660 931
e 660 827
e 661 991
e 661 732
e 661 753
e 661 771
e 662 892
e 662 999
e 662 949
e 662 703
e 663 750
e 663 891
e 663 781
e 665 971
e 665 921
e 666 874
e 667 727
e 668 989
e 668 729
e 670 880
e 670 828
e 671 713
e 672 749
e 673 886
e 673 832
e 674 707
e 674 987
e 676 889
e 676 816
e 676 950
e 680 900
e 683 897
e 683 723
e 688 945
e 688 810
e 688 818
e 690 939
e 690 978
e 691 697
e 692 927
e 693 798
e 693 796
e 694 894
e 695 955
e 697 806
e 698 936
e 698 827
e 700 957
e 702 826
e 705 997
e 705 756
e 707 965
e 710 757
e 713 931
e 713 897
e 713 911
e 715 805
e 719 773
e 719 786
e 721 843
e 722 986
e 722 964
e 722 836
e 723 856
e 724 942
e 725 976
e 725 792
e 726 940
e 726 904
e 726 897
e 727 896
e 732 856
e 733 964
e 734 880
e 735 863
e 735 750
e 738 806
e 742 831
e 742 923
e 743 826
e 743 966
e 743 997
e 746 993
e 747 923
e 748 937
e 748 976
e 748 824
e 749 757
e 750 799
e 753 834
e 756 757
e 756 934
e 757 899
e 760 857
e 760 866
e 761 844
e 761 935
e 762 829
e 762 970
e 763 850
e 765 886
e 765 798
e 766 869
e 766 858
e 767 894
e 767 906
e 768 809
e 770 937
e 770 955
e 776 982
e 776 967
e 777 810
e 778 890
e 778 943
e 778 883
e 778 897
e 778 816
e 779 841
e 779 861
e 780 838
e 783 982
e 783 805
e 783 820
e 784 998
e 786 993
e 789 801
e 794 924
e 797 951
e 800 889
e 801 985
e 802 986
e 803 819
e 805 973
e 805 904
e 806 936
e 807 925
e 807 854
e 807 838
e 809 856
e 811 871
e 811 966
e 813 899
e 816 878
e 817 903
e 817 892
e 818 886
e 818 893
e 819 994
e 820 898
e 821 834
e 824 860
e 825 988
e 825 841
e 826 969
e 826 841
e 828 982
e 829 867
e 831 978
e 832 942
e 832 991
e 834 934
e 836 987
e 838 976
e 845 994
e 845 887
e 854 984
e 855 938
e 860 985
e 861 984
e 861 930
e 862 904
e 867 899
e 869 913
e 870 883
e 878 992
e 883 942
e 887 975
e 887 985
e 892 965
e 892 994
e 895 945
e 895 950
e 895 900
e 896 927
e 897 988
e 897 980
e 899 903
e 900 917
e 903 973
e 906 991
e 911 987
e 917 982
e 918 975
e 921 979
e 922 929
e 924 992
e 924 967
e 931 979
e 933 978
e 936 959
e 939 985
e 942 975
e 945 973
e 971 976
e 978 992
