txt_Ins/graph-1000-583.txt
n 1000
e 0 417
e 0 74
e 0 793
e 0 394
e 0 197
e 1 690
e 1 763
e 1 812
e 1 712
e 2 913
e 2 431
e 2 572
e 2 71
e 3 950
e 3 730
e 3 551
e 3 290
e 4 732
e 4 303
e 4 679
e 4 513
e 4 604
e 4 326
e 7 413
e 7 308
e 7 676
e 7 478
e 7 364
e 7 645
e 8 520
e 8 374
e 8 682
e 9 460
e 9 77
e 9 631
e 11 843
e 11 593
e 11 67
e 11 558
e 11 804
e 12 272
e 12 158
e 12 718
e 13 812
e 13 881
e 13 250
e 15 670
e 15 379
e 15 932
e 16 453
e 16 39
e 16 786
e 17 722
e 17 409
e 17 472
e 18 985
e 18 495
e 18 797
e 18 813
e 18 38
e 19 837
e 19 980
e 19 917
e 19 593
e 19 138
e 19 828
e 19 254
e 20 457
e 20 956
e 20 207
e 21 219
e 21 320
e 21 934
e 21 123
e 22 109
e 22 873
e 22 784
e 24 636
e 24 861
e 24 144
e 24 379
e 25 681
e 25 442
e 25 382
e 25 574
e 25 771
e 25 798
e 25 991
e 26 742
e 26 376
e 26 844
e 27 650
e 27 475
e 27 441
e 27 853
e 27 495
e 28 404
e 28 965
e 28 905
e 28 349
e 28 479
e 29 799
e 29 267
e 29 389
e 30 355
e 30 708
e 30 764
e 30 976
e 31 922
e 31 543
e 31 503
e 32 971
e 32 141
e 32 403
e 32 956
e 32 333
e 33 965
e 33 923
e 33 364
e 33 723
e 34 484
e 34 862
e 34 302
e 34 144
e 36 563
e 36 470
e 36 105
e 36 449
e 37 523
e 37 913
e 37 430
e 37 883
e 37 344
e 38 222
e 38 364
e 38 190
e 38 607
e 38 126
e 39 979
e 39 495
e 39 777
e 39 977
e 39 935
e 39 80
e 39 50
e 41 976
e 41 856
e 41 852
e 41 793
e 41 769
e 41 611
e 43 720
e 43 455
e 43 102
e 43 287
e 45 997
e 45 360
e 45 976
e 45 767
e 45 645
e 45 552
e 45 574
e 46 192
e 46 503
e 46 699
e 48 245
e 48 109
e 48 654
e 48 167
e 48 70
e 48 509
e 48 785
e 48 740
e 49 332
e 49 608
e 49 450
e 49 448
e 49 371
e 50 189
e 50 168
e 50 964
e 50 170
e 51 455
e 51 104
e 51 971
e 52 746
e 52 418
e 52 65
e 52 153
e 52 372
e 54 349
e 54 749
e 54 958
e 54 965
e 55 294
e 55 534
e 55 990
e 56 992
e 56 335
e 56 680
e 56 780
e 57 238
e 57 95
e 57 122
e 57 589
e 59 523
e 59 498
e 59 605
e 59 430
e 59 163
e 60 656
e 60 82
e 60 625
e 60 494
e 60 849
e 60 332
e 61 761
e 61 480
e 61 70
e 62 392
e 62 231
e 62 113
e 63 152
e 63 82
e 63 622
e 63 563
e 63 665
e 65 513
e 65 240
e 65 170
e 65 714
e 65 302
e 66 775
e 66 779
e 66 334
e 66 854
e 66 369
e 67 258
e 67 434
e 67 680
e 69 706
e 69 744
e 69 104
e 69 458
e 69 245
e 69 114
e 69 404
e 70 616
e 70 215
e 70 179
e 70 645
e 71 830
e 71 166
e 72 561
e 72 402
e 72 722
e 72 226
e 73 400
e 73 286
e 73 199
e 73 680
e 74 983
e 74 267
e 74 222
e 74 687
e 76 210
e 76 681
e 76 663
e 76 414
e 76 937
e 76 344
e 77 109
e 77 116
e 77 918
e 77 687
e 78 776
e 78 670
e 78 855
e 78 573
e 78 273
e 79 561
e 79 396
e 79 158
e 79 416
e 80 308
e 80 410
e 80 934
e 80 424
e 80 335
e 80 935
e 80 363
e 80 377
e 80 954
e 80 344
e 82 347
e 82 938
e 82 103
e 82 990
e 82 414
e 82 955
e 84 98
e 84 616
e 84 331
e 86 484
e 86 487
e 86 102
e 86 434
e 90 155
e 90 290
e 90 937
e 90 737
e 90 527
e 91 217
e 91 458
e 91 997
e 91 459
e 95 835
e 95 561
e 95 124
e 96 118
e 96 411
e 96 372
e 96 823
e 96 730
e 96 435
e 98 109
e 98 104
e 98 777
e 98 351
e 98 785
e 98 912
e 99 815
e 99 942
e 99 936
e 99 826
e 102 157
e 103 812
e 103 505
e 103 541
e 104 980
e 104 856
e 104 883
e 105 341
e 105 944
e 105 297
e 107 412
e 107 379
e 107 539
e 108 309
e 108 230
e 108 335
e 108 681
e 108 682
e 111 411
e 111 379
e 111 455
e 113 299
e 113 411
e 113 687
e 113 802
e 114 222
e 114 388
e 114 539
e 115 752
e 115 540
e 115 650
e 115 431
e 116 810
e 116 606
e 116 933
e 116 477
e 116 199
e 118 558
e 118 284
e 118 435
e 118 797
e 120 860
e 120 316
e 120 562
e 120 360
e 120 543
e 122 936
e 122 635
e 123 779
e 123 647
e 123 286
e 124 277
e 124 391
e 126 731
e 126 923
e 126 938
e 126 218
e 127 388
e 127 700
e 127 304
e 127 572
e 127 904
e 129 177
e 129 574
e 129 969
e 129 462
e 129 709
e 130 561
e 130 417
e 130 904
e 130 937
e 130 152
e 130 487
e 131 350
e 131 508
e 131 358
e 131 577
e 131 699
e 132 341
e 132 609
e 132 893
e 132 825
e 132 923
e 133 560
e 133 656
e 133 461
e 133 494
e 133 328
e 134 428
e 134 561
e 134 929
e 134 164
e 134 691
e 135 718
e 135 415
e 135 623
e 135 643
e 135 428
e 135 578
e 136 666
e 136 896
e 136 292
e 136 830
e 137 255
e 137 451
e 137 657
e 137 604
e 138 158
e 138 948
e 138 603
e 139 441
e 139 879
e 139 543
e 139 299
e 141 170
e 141 606
e 141 442
e 141 452
e 142 603
e 142 552
e 142 621
e 142 865
e 143 645
e 143 971
e 143 343
e 143 435
e 144 629
e 144 824
e 144 366
e 144 414
e 144 831
e 145 410
e 145 241
e 145 928
e 145 691
e 145 492
e 146 997
e 146 333
e 146 391
e 146 701
e 147 253
e 147 373
e 147 329
e 147 595
e 147 987
e 147 806
e 148 372
e 148 360
e 148 582
e 151 503
e 151 927
e 151 748
e 151 636
e 152 488
e 152 366
e 153 360
e 153 633
e 154 161
e 154 974
e 154 568
e 154 495
e 154 417
e 155 166
e 155 454
e 155 168
e 155 942
e 156 932
e 156 992
e 156 732
e 156 662
e 157 171
e 157 551
e 157 566
e 157 306
e 157 189
e 158 494
e 158 290
e 158 715
e 159 500
e 159 730
e 159 929
e 161 665
e 161 968
e 161 902
e 162 775
e 162 397
e 162 978
e 162 174
e 163 328
e 163 631
e 163 693
e 163 168
e 164 369
e 164 948
e 166 987
e 166 942
e 166 406
e 166 262
e 166 586
e 167 796
e 167 786
e 167 348
e 167 210
e 167 669
e 167 920
e 168 675
e 168 312
e 171 262
e 171 854
e 171 510
e 171 830
e 174 745
e 174 928
e 174 704
e 174 460
e 174 301
e 174 767
e 176 791
e 176 417
e 176 208
e 177 250
e 177 840
e 177 932
e 177 688
e 177 917
e 177 200
e 178 839
e 178 941
e 178 929
e 179 560
e 179 454
e 181 434
e 181 545
e 181 359
e 181 230
e 185 521
e 185 204
e 185 546
e 185 824
e 185 544
e 186 988
e 186 539
e 186 471
e 186 766
e 186 596
e 186 747
e 188 987
e 188 776
e 188 923
e 189 998
e 189 708
e 189 444
e 189 547
e 190 648
e 190 608
e 190 516
e 190 434
e 190 468
e 192 573
e 192 547
e 193 489
e 193 589
e 193 640
e 194 553
e 194 732
e 194 747
e 194 733
e 194 986
e 197 682
e 197 457
e 197 859
e 197 369
e 197 604
e 197 937
e 197 923
e 198 657
e 198 449
e 198 421
e 199 510
e 199 290
e 199 576
e 199 230
e 199 918
e 200 354
e 200 886
e 201 578
e 201 359
e 201 361
e 201 464
e 201 805
e 202 529
e 202 488
e 202 659
e 203 222
e 203 873
e 203 520
e 203 507
e 204 889
e 204 595
e 204 904
e 204 898
e 204 827
e 204 279
e 204 620
e 207 305
e 207 866
e 207 827
e 208 436
e 208 498
e 208 472
e 209 432
e 209 567
e 209 483
e 209 800
e 210 439
e 210 742
e 214 532
e 214 963
e 214 518
e 215 594
e 215 670
e 215 908
e 217 484
e 217 449
e 217 348
e 217 351
e 217 797
e 218 239
e 218 886
e 219 238
e 219 890
e 219 965
e 219 428
e 219 617
e 220 334
e 220 763
e 220 635
e 221 594
e 221 277
e 221 344
e 221 451
e 221 827
e 222 816
e 222 456
e 222 843
e 224 998
e 224 633
e 224 327
e 225 864
e 225 416
e 225 333
e 226 671
e 226 920
e 226 506
e 226 691
e 226 421
e 226 462
e 228 304
e 228 448
e 228 281
e 228 500
e 228 446
e 229 958
e 229 274
e 229 470
e 230 788
e 230 825
e 230 940
e 230 918
e 230 673
e 231 249
e 231 897
e 231 267
e 231 839
e 236 376
e 236 480
e 236 469
e 238 700
e 238 475
e 239 858
e 239 568
e 239 419
e 239 323
e 240 675
e 240 828
e 240 395
e 240 765
e 240 772
e 241 367
e 241 889
e 241 802
e 241 403
e 241 536
e 241 464
e 243 922
e 243 981
e 243 861
e 243 814
e 244 815
e 244 924
e 244 246
e 245 269
e 246 524
e 246 345
e 246 820
e 246 414
e 246 759
e 248 708
e 248 389
e 248 272
e 248 300
e 248 353
e 249 409
e 249 856
e 249 345
e 249 325
e 249 258
e 249 572
e 250 679
e 251 813
e 251 622
e 251 799
e 253 394
e 253 783
e 253 484
e 254 396
e 254 706
e 254 744
e 254 797
e 255 734
e 255 893
e 256 571
e 256 891
e 256 589
e 256 550
e 256 659
e 257 985
e 257 802
e 257 306
e 257 267
e 257 722
e 258 966
e 258 475
e 258 297
e 258 956
e 259 440
e 259 800
e 259 353
e 259 616
e 260 382
e 260 520
e 260 963
e 260 547
e 260 574
e 260 993
e 261 558
e 261 453
e 261 393
e 262 860
e 262 742
e 262 428
e 262 666
e 262 522
e 263 291
e 263 469
e 263 328
e 263 611
e 266 679
e 266 769
e 266 552
e 266 785
e 269 691
e 269 488
e 270 524
e 270 661
e 270 700
e 271 992
e 271 595
e 271 884
e 272 714
e 272 837
e 272 514
e 273 659
e 273 858
e 273 783
e 274 291
e 274 583
e 274 577
e 275 624
e 275 653
e 275 548
e 277 888
e 277 870
e 278 472
e 278 459
e 278 354
e 278 532
e 279 355
e 279 709
e 279 884
e 279 472
e 279 852
e 279 344
e 281 555
e 281 968
e 281 583
e 281 819
e 281 287
e 283 704
e 283 321
e 283 733
e 284 641
e 284 500
e 284 937
e 284 912
e 284 928
e 285 712
e 285 581
e 285 434
e 285 505
e 286 923
e 286 908
e 286 699
e 286 551
e 286 690
e 286 837
e 287 917
e 287 529
e 287 965
e 287 857
e 287 506
e 289 954
e 289 427
e 289 519
e 290 348
e 290 763
e 290 642
e 290 817
e 291 933
e 291 833
e 291 941
e 291 609
e 291 988
e 291 923
e 291 897
e 292 330
e 292 367
e 292 324
e 292 584
e 292 354
e 292 808
e 292 423
e 292 648
e 293 855
e 293 871
e 293 790
e 294 756
e 294 323
e 294 970
e 297 669
e 297 723
e 297 904
e 297 892
e 299 652
e 299 536
e 299 310
e 299 558
e 300 479
e 300 688
e 300 477
e 300 819
e 300 486
e 301 786
e 301 840
e 301 647
e 302 904
e 302 970
e 302 309
e 303 623
e 303 790
e 304 565
e 304 444
e 305 587
e 305 396
e 305 745
e 306 417
e 306 555
e 308 714
e 308 704
e 308 661
e 308 609
e 309 765
e 309 578
e 309 666
e 310 377
e 310 665
e 310 744
e 310 448
e 312 968
e 312 316
e 313 903
e 313 370
e 313 771
e 313 924
e 313 369
e 313 318
e 315 631
e 315 858
e 315 479
e 316 637
e 317 776
e 317 676
e 317 459
e 318 745
e 318 621
e 319 789
e 319 929
e 319 595
e 320 767
e 320 784
e 320 552
e 321 509
e 321 586
e 321 839
e 322 504
e 322 509
e 322 571
e 322 895
e 323 477
e 323 488
e 324 955
e 324 987
e 324 582
e 325 414
e 325 388
e 325 440
e 325 884
e 325 377
e 325 539
e 325 820
e 325 932
e 325 488
e 325 624
e 326 344
e 326 963
e 326 964
e 327 544
e 327 584
e 328 820
e 328 752
e 328 865
e 329 372
e 329 509
e 329 471
e 330 561
e 330 954
e 330 859
e 330 792
e 330 965
e 331 368
e 331 336
e 331 536
e 332 587
e 332 728
e 332 870
e 332 974
e 332 730
e 332 601
e 333 924
e 334 379
e 334 699
e 335 980
e 336 884
e 336 635
e 336 933
e 336 629
e 336 414
e 338 483
e 338 552
e 338 785
e 338 530
e 341 883
e 341 744
e 341 988
e 341 520
e 342 769
e 342 587
e 342 694
e 342 805
e 343 780
e 343 580
e 343 574
e 344 582
e 344 553
e 344 938
e 345 714
e 345 902
e 345 740
e 346 857
e 346 557
e 346 616
e 346 503
e 347 884
e 347 701
e 348 355
e 348 622
e 349 475
e 349 574
e 349 413
e 349 864
e 349 761
e 349 584
e 349 373
e 350 752
e 350 726
e 350 780
e 350 447
e 350 747
e 350 692
e 351 715
e 353 412
e 353 515
e 354 494
e 354 605
e 355 679
e 356 922
e 356 486
e 356 446
e 356 864
e 356 767
e 358 455
e 358 570
e 359 667
e 359 768
e 359 940
e 360 486
e 360 413
e 361 521
e 361 567
e 361 642
e 363 983
e 363 376
e 363 744
e 364 928
e 366 913
e 366 770
e 366 800
e 367 486
e 367 474
e 368 546
e 368 691
e 368 891
e 368 658
e 369 391
e 369 793
e 369 702
e 370 629
e 370 666
e 370 458
e 370 547
e 370 736
e 371 975
e 371 479
e 371 974
e 371 567
e 371 879
e 372 975
e 372 394
e 372 596
e 373 450
e 374 646
e 374 698
e 374 410
e 376 616
e 376 921
e 376 741
e 376 381
e 376 865
e 377 455
e 377 465
e 377 672
e 379 397
e 379 910
e 379 927
e 379 849
e 379 606
e 381 897
e 381 508
e 381 428
e 381 555
e 382 480
e 383 697
e 383 723
e 383 573
e 383 451
e 383 414
e 383 708
e 388 740
e 388 510
e 388 776
e 388 980
e 388 495
e 388 394
e 388 594
e 389 717
e 389 643
e 389 825
e 389 885
e 390 762
e 390 543
e 390 910
e 391 987
e 391 654
e 391 552
e 391 523
e 392 972
e 392 657
e 393 537
e 393 725
e 393 489
e 393 600
e 393 814
e 394 617
e 395 495
e 395 809
e 395 671
e 396 883
e 396 641
e 397 737
e 397 936
e 400 666
e 400 727
e 402 921
e 402 948
e 403 788
e 403 692
e 404 474
e 404 733
e 406 813
e 406 868
e 408 455
e 408 616
e 408 849
e 408 552
e 409 516
e 410 689
e 410 892
e 410 617
e 410 984
e 411 783
e 411 793
e 411 523
e 411 950
e 411 802
e 411 636
e 411 868
e 412 779
e 412 974
e 413 455
e 413 983
e 413 464
e 414 603
e 415 775
e 415 515
e 415 923
e 415 673
e 415 948
e 415 954
e 416 562
e 416 877
e 417 483
e 418 706
e 418 605
e 418 648
e 418 862
e 419 602
e 419 767
e 419 434
e 419 949
e 420 835
e 420 720
e 420 582
e 420 801
e 421 430
e 422 976
e 422 562
e 422 951
e 422 462
e 423 567
e 423 436
e 424 459
e 424 740
e 427 897
e 427 552
e 428 789
e 428 466
e 428 595
e 430 856
e 431 539
e 432 827
e 432 983
e 432 565
e 432 555
e 434 745
e 434 883
e 434 790
e 435 881
e 435 996
e 436 888
e 436 628
e 436 687
e 437 762
e 437 461
e 437 921
e 437 718
e 438 883
e 438 949
e 438 934
e 439 883
e 439 442
e 440 817
e 441 541
e 441 871
e 442 802
e 443 835
e 443 580
e 443 715
e 443 752
e 444 890
e 444 450
e 444 727
e 446 744
e 446 733
e 447 793
e 447 916
e 449 671
e 449 536
e 450 913
e 450 985
e 451 969
e 451 567
e 451 702
e 452 699
e 452 895
e 452 741
e 452 561
e 453 971
e 453 673
e 454 690
e 454 464
e 455 468
e 455 938
e 455 766
e 456 893
e 456 904
e 456 693
e 457 992
e 457 965
e 457 857
e 457 498
e 457 549
e 457 997
e 458 759
e 459 812
e 459 694
e 460 869
e 461 663
e 461 778
e 462 533
e 462 518
e 463 698
e 463 798
e 463 518
e 464 799
e 464 666
e 464 886
e 465 967
e 465 517
e 465 772
e 465 741
e 466 866
e 466 636
e 466 662
e 467 622
e 467 762
e 467 789
e 468 712
e 468 724
e 469 611
e 469 682
e 470 824
e 471 645
e 471 533
e 471 728
e 472 860
e 474 522
e 474 969
e 475 759
e 477 997
e 478 486
e 478 554
e 478 531
e 478 603
e 478 771
e 478 940
e 480 521
e 480 515
e 480 633
e 480 736
e 482 675
e 482 967
e 482 866
e 482 824
e 482 727
e 483 487
e 483 515
e 483 801
e 483 984
e 484 869
e 486 798
e 486 870
e 486 602
e 487 709
e 487 998
e 488 860
e 488 746
e 489 939
e 489 535
e 489 855
e 492 507
e 492 779
e 495 771
e 495 715
e 495 562
e 495 890
e 496 981
e 496 524
e 496 724
e 496 992
e 497 535
e 497 814
e 497 842
e 498 553
e 498 688
e 503 883
e 504 653
e 504 640
e 505 725
e 506 557
e 506 552
e 506 762
e 507 796
e 507 859
e 508 908
e 508 600
e 508 824
e 509 721
e 509 936
e 510 602
e 510 717
e 513 672
e 513 760
e 514 654
e 514 767
e 514 561
e 515 603
e 515 948
e 515 568
e 515 541
e 516 537
e 516 698
e 516 561
e 517 972
e 517 714
e 517 873
e 518 692
e 518 704
e 519 539
e 519 594
e 520 963
e 520 969
e 521 584
e 522 923
e 522 570
e 522 818
e 523 840
e 523 828
e 523 809
e 523 669
e 524 701
e 527 929
e 527 553
e 529 631
e 529 625
e 529 830
e 530 860
e 530 697
e 531 899
e 531 929
e 532 977
e 532 718
e 533 625
e 533 950
e 533 768
e 534 823
e 534 554
e 535 730
e 536 844
e 536 557
e 537 998
e 537 866
e 539 796
e 539 712
e 540 722
e 540 795
e 540 987
e 541 835
e 541 820
e 543 664
e 544 871
e 545 792
e 545 785
e 546 690
e 546 662
e 546 742
e 546 749
e 548 584
e 548 786
e 548 731
e 548 662
e 549 984
e 549 646
e 549 723
e 550 796
e 550 755
e 550 574
e 550 927
e 550 894
e 550 871
e 550 986
e 551 789
e 551 988
e 552 696
e 552 802
e 553 725
e 553 864
e 553 747
e 553 882
e 554 562
e 554 933
e 554 929
e 555 852
e 555 886
e 555 782
e 557 573
e 557 920
e 557 742
e 558 618
e 560 910
e 560 978
e 560 762
e 561 676
e 562 965
e 563 791
e 565 884
e 565 870
e 565 744
e 566 595
e 566 817
e 567 735
e 568 633
e 569 844
e 569 708
e 569 941
e 569 939
e 570 799
e 570 760
e 570 673
e 570 951
e 571 922
e 571 698
e 571 854
e 573 975
e 574 584
e 574 779
e 575 920
e 575 802
e 575 852
e 575 740
e 576 791
e 576 891
e 577 926
e 577 682
e 577 665
e 577 879
e 578 699
e 580 984
e 580 951
e 581 792
e 581 992
e 582 658
e 582 593
e 583 891
e 583 986
e 583 673
e 586 895
e 587 690
e 587 602
e 587 825
e 589 628
e 593 969
e 593 712
e 594 640
e 595 741
e 596 828
e 596 666
e 596 784
e 596 981
e 596 736
e 600 760
e 600 967
e 601 842
e 601 620
e 604 917
e 605 802
e 605 865
e 605 916
e 606 778
e 606 799
e 607 735
e 607 974
e 607 752
e 607 720
e 608 793
e 611 937
e 616 987
e 616 971
e 616 805
e 616 791
e 617 652
e 617 727
e 618 854
e 618 795
e 618 908
e 620 839
e 621 742
e 622 866
e 623 728
e 623 894
e 624 752
e 624 722
e 628 693
e 631 700
e 631 955
e 633 647
e 633 717
e 633 869
e 633 792
e 636 662
e 637 949
e 637 979
e 640 748
e 641 964
e 641 932
e 641 892
e 641 798
e 642 893
e 642 936
e 642 735
e 643 768
e 645 709
e 646 882
e 646 762
e 646 940
e 647 869
e 648 663
e 648 770
e 650 881
e 652 657
e 652 833
e 653 898
e 656 800
e 658 873
e 658 976
e 659 930
e 659 826
e 660 990
e 660 731
e 660 752
e 660 770
e 661 891
e 661 998
e 661 948
e 661 702
e 662 749
e 662 890
e 662 780
e 664 970
e 664 920
e 665 873
e 666 726
e 667 988
e 667 728
e 669 879
e 669 827
e 670 712
e 671 748
e 672 885
e 672 831
e 673 706
e 673 986
e 675 888
e 675 815
e 675 949
e 679 899
e 682 896
e 682 722
e 687 944
e 687 809
e 687 817
e 689 938
e 689 977
e 690 696
e 691 926
e 692 797
e 692 795
e 693 893
e 694 954
e 696 805
e 697 935
e 697 826
e 699 956
e 701 825
e 704 996
e 704 755
e 706 964
e 709 756
e 712 930
e 712 896
e 712 910
e 714 804
e 718 772
e 718 785
e 720 842
e 721 985
e 721 963
e 721 835
e 722 855
e 723 941
e 724 975
e 724 791
e 725 939
e 725 903
e 725 896
e 726 895
e 731 855
e 732 963
e 733 879
e 734 862
e 734 749
e 737 805
e 741 830
e 741 922
e 742 825
e 742 965
e 742 996
e 745 992
e 746 922
e 747 936
e 747 975
e 747 823
e 748 756
e 749 798
e 752 833
e 755 756
e 755 933
e 756 898
e 759 856
e 759 865
e 760 843
e 760 934
e 761 828
e 761 969
e 762 849
e 764 885
e 764 797
e 765 868
e 765 857
e 766 893
e 766 905
e 767 808
e 769 936
e 769 954
e 775 981
e 775 966
e 776 809
e 777 889
e 777 942
e 777 882
e 777 896
e 777 815
e 778 840
e 778 860
e 779 837
e 782 981
e 782 804
e 782 819
e 783 997
e 785 992
e 788 800
e 793 923
e 796 950
e 799 888
e 800 984
e 801 985
e 802 818
e 804 972
e 804 903
e 805 935
e 806 924
e 806 853
e 806 837
e 808 855
e 810 870
e 810 965
e 812 898
e 815 877
e 816 902
e 816 891
e 817 885
e 817 892
e 818 993
e 819 897
e 820 833
e 823 859
e 824 987
e 824 840
e 825 968
e 825 840
e 827 981
e 828 866
e 830 977
e 831 941
e 831 990
e 833 933
e 835 986
e 837 975
e 844 993
e 844 886
e 853 983
e 854 937
e 859 984
e 860 983
e 860 929
e 861 903
e 866 898
e 868 912
e 869 882
e 877 991
e 882 941
e 886 974
e 886 984
e 891 964
e 891 993
e 894 944
e 894 949
e 894 899
e 895 926
e 896 987
e 896 979
e 898 902
e 899 916
e 902 972
e 905 990
e 910 986
e 916 981
e 917 974
e 920 978
e 921 928
e 923 991
e 923 966
e 930 978
e 932 977
e 935 958
e 938 984
e 941 974
e 944 972
e 970 975
e 977 991
